data/lp_files/q3/82_6.lp
\ Model foo
\ LP format - for model browsing. Use MPS format to capture full model detail.
Minimize
  z
Subject To
 allocateEach[1]: x[1,1] + x[2,1] + x[3,1] + x[4,1] + x[5,1] = 1
 allocateEach[2]: x[1,2] + x[2,2] + x[3,2] + x[4,2] + x[5,2] = 1
 allocateAllCash: cashProportion[1] + cashProportion[2] + cashProportion[3]
   + cashProportion[4] + cashProportion[5] = 1
 findWorstP[1,2]: z + 0.4134794293983874 cashProportion[1]
   - 0.4134794293983874 cashProportion[2] + 0.129729170973744 x[1,1]
   + 0.4567913996278685 x[1,2] - 0.129729170973744 x[2,1]
   - 0.4567913996278685 x[2,2] >= 0
 findWorstP[1,3]: z + 0.4134794293983874 cashProportion[1]
   - 0.4134794293983874 cashProportion[3] + 0.129729170973744 x[1,1]
   + 0.4567913996278685 x[1,2] - 0.129729170973744 x[3,1]
   - 0.4567913996278685 x[3,2] >= 0
 findWorstP[1,4]: z + 0.4134794293983874 cashProportion[1]
   - 0.4134794293983874 cashProportion[4] + 0.129729170973744 x[1,1]
   + 0.4567913996278685 x[1,2] - 0.129729170973744 x[4,1]
   - 0.4567913996278685 x[4,2] >= 0
 findWorstP[1,5]: z + 0.4134794293983874 cashProportion[1]
   - 0.4134794293983874 cashProportion[5] + 0.129729170973744 x[1,1]
   + 0.4567913996278685 x[1,2] - 0.129729170973744 x[5,1]
   - 0.4567913996278685 x[5,2] >= 0
 findWorstP[2,1]: z - 0.590493061706525 cashProportion[1]
   + 0.590493061706525 cashProportion[2] - 0.3804251550044287 x[1,1]
   - 0.0290817832890464 x[1,2] + 0.3804251550044287 x[2,1]
   + 0.0290817832890464 x[2,2] >= 0
 findWorstP[2,3]: z + 0.590493061706525 cashProportion[2]
   - 0.590493061706525 cashProportion[3] + 0.3804251550044287 x[2,1]
   + 0.0290817832890464 x[2,2] - 0.3804251550044287 x[3,1]
   - 0.0290817832890464 x[3,2] >= 0
 findWorstP[2,4]: z + 0.590493061706525 cashProportion[2]
   - 0.590493061706525 cashProportion[4] + 0.3804251550044287 x[2,1]
   + 0.0290817832890464 x[2,2] - 0.3804251550044287 x[4,1]
   - 0.0290817832890464 x[4,2] >= 0
 findWorstP[2,5]: z + 0.590493061706525 cashProportion[2]
   - 0.590493061706525 cashProportion[5] + 0.3804251550044287 x[2,1]
   + 0.0290817832890464 x[2,2] - 0.3804251550044287 x[5,1]
   - 0.0290817832890464 x[5,2] >= 0
 findWorstP[3,1]: z - 0.3062083747990508 cashProportion[1]
   + 0.3062083747990508 cashProportion[3] - 0.0614713312409094 x[1,1]
   - 0.6323202939600397 x[1,2] + 0.0614713312409094 x[3,1]
   + 0.6323202939600397 x[3,2] >= 0
 findWorstP[3,2]: z - 0.3062083747990508 cashProportion[2]
   + 0.3062083747990508 cashProportion[3] - 0.0614713312409094 x[2,1]
   - 0.6323202939600397 x[2,2] + 0.0614713312409094 x[3,1]
   + 0.6323202939600397 x[3,2] >= 0
 findWorstP[3,4]: z + 0.3062083747990508 cashProportion[3]
   - 0.3062083747990508 cashProportion[4] + 0.0614713312409094 x[3,1]
   + 0.6323202939600397 x[3,2] - 0.0614713312409094 x[4,1]
   - 0.6323202939600397 x[4,2] >= 0
 findWorstP[3,5]: z + 0.3062083747990508 cashProportion[3]
   - 0.3062083747990508 cashProportion[5] + 0.0614713312409094 x[3,1]
   + 0.6323202939600397 x[3,2] - 0.0614713312409094 x[5,1]
   - 0.6323202939600397 x[5,2] >= 0
 findWorstP[4,1]: z - 0.2401681176823777 cashProportion[1]
   + 0.2401681176823777 cashProportion[4] - 0.2432903032122486 x[1,1]
   - 0.5165415791053738 x[1,2] + 0.2432903032122486 x[4,1]
   + 0.5165415791053738 x[4,2] >= 0
 findWorstP[4,2]: z - 0.2401681176823777 cashProportion[2]
   + 0.2401681176823777 cashProportion[4] - 0.2432903032122486 x[2,1]
   - 0.5165415791053738 x[2,2] + 0.2432903032122486 x[4,1]
   + 0.5165415791053738 x[4,2] >= 0
 findWorstP[4,3]: z - 0.2401681176823777 cashProportion[3]
   + 0.2401681176823777 cashProportion[4] - 0.2432903032122486 x[3,1]
   - 0.5165415791053738 x[3,2] + 0.2432903032122486 x[4,1]
   + 0.5165415791053738 x[4,2] >= 0
 findWorstP[4,5]: z + 0.2401681176823777 cashProportion[4]
   - 0.2401681176823777 cashProportion[5] + 0.2432903032122486 x[4,1]
   + 0.5165415791053738 x[4,2] - 0.2432903032122486 x[5,1]
   - 0.5165415791053738 x[5,2] >= 0
 findWorstP[5,1]: z - 0.2882259691598213 cashProportion[1]
   + 0.2882259691598213 cashProportion[5] - 0.6682519094970457 x[1,1]
   - 0.043522121343133 x[1,2] + 0.6682519094970457 x[5,1]
   + 0.043522121343133 x[5,2] >= 0
 findWorstP[5,2]: z - 0.2882259691598213 cashProportion[2]
   + 0.2882259691598213 cashProportion[5] - 0.6682519094970457 x[2,1]
   - 0.043522121343133 x[2,2] + 0.6682519094970457 x[5,1]
   + 0.043522121343133 x[5,2] >= 0
 findWorstP[5,3]: z - 0.2882259691598213 cashProportion[3]
   + 0.2882259691598213 cashProportion[5] - 0.6682519094970457 x[3,1]
   - 0.043522121343133 x[3,2] + 0.6682519094970457 x[5,1]
   + 0.043522121343133 x[5,2] >= 0
 findWorstP[5,4]: z - 0.2882259691598213 cashProportion[4]
   + 0.2882259691598213 cashProportion[5] - 0.6682519094970457 x[4,1]
   - 0.043522121343133 x[4,2] + 0.6682519094970457 x[5,1]
   + 0.043522121343133 x[5,2] >= 0
Bounds
 z <= 1
 -infinity <= cashProportion[1] <= 1
 -infinity <= cashProportion[2] <= 1
 -infinity <= cashProportion[3] <= 1
 -infinity <= cashProportion[4] <= 1
 -infinity <= cashProportion[5] <= 1
Binaries
 x[1,1] x[1,2] x[2,1] x[2,2] x[3,1] x[3,2] x[4,1] x[4,2] x[5,1] x[5,2]
End
