data/mps_files/pEFS/82_6.mps
NAME foo
ROWS
 N  OBJ
 E  allocateEach[1]
 E  allocateEach[2]
 E  allocateAllCash
 G  findWorstP[1,2]
 G  findWorstP[1,3]
 G  findWorstP[1,4]
 G  findWorstP[1,5]
 G  findWorstP[2,1]
 G  findWorstP[2,3]
 G  findWorstP[2,4]
 G  findWorstP[2,5]
 G  findWorstP[3,1]
 G  findWorstP[3,2]
 G  findWorstP[3,4]
 G  findWorstP[3,5]
 G  findWorstP[4,1]
 G  findWorstP[4,2]
 G  findWorstP[4,3]
 G  findWorstP[4,5]
 G  findWorstP[5,1]
 G  findWorstP[5,2]
 G  findWorstP[5,3]
 G  findWorstP[5,4]
COLUMNS
    z         OBJ       1
    z         findWorstP[1,2]  1
    z         findWorstP[1,3]  1
    z         findWorstP[1,4]  1
    z         findWorstP[1,5]  1
    z         findWorstP[2,1]  1
    z         findWorstP[2,3]  1
    z         findWorstP[2,4]  1
    z         findWorstP[2,5]  1
    z         findWorstP[3,1]  1
    z         findWorstP[3,2]  1
    z         findWorstP[3,4]  1
    z         findWorstP[3,5]  1
    z         findWorstP[4,1]  1
    z         findWorstP[4,2]  1
    z         findWorstP[4,3]  1
    z         findWorstP[4,5]  1
    z         findWorstP[5,1]  1
    z         findWorstP[5,2]  1
    z         findWorstP[5,3]  1
    z         findWorstP[5,4]  1
    cashProportion[1]  allocateAllCash  1
    cashProportion[1]  findWorstP[1,2]  4.1347942939838744e-01
    cashProportion[1]  findWorstP[1,3]  4.1347942939838744e-01
    cashProportion[1]  findWorstP[1,4]  4.1347942939838744e-01
    cashProportion[1]  findWorstP[1,5]  4.1347942939838744e-01
    cashProportion[1]  findWorstP[2,1]  -0.590493061706525
    cashProportion[1]  findWorstP[3,1]  -3.0620837479905078e-01
    cashProportion[1]  findWorstP[4,1]  -2.4016811768237770e-01
    cashProportion[1]  findWorstP[5,1]  -2.8822596915982135e-01
    cashProportion[2]  allocateAllCash  1
    cashProportion[2]  findWorstP[1,2]  -4.1347942939838744e-01
    cashProportion[2]  findWorstP[2,1]  0.590493061706525
    cashProportion[2]  findWorstP[2,3]  0.590493061706525
    cashProportion[2]  findWorstP[2,4]  0.590493061706525
    cashProportion[2]  findWorstP[2,5]  0.590493061706525
    cashProportion[2]  findWorstP[3,2]  -3.0620837479905078e-01
    cashProportion[2]  findWorstP[4,2]  -2.4016811768237770e-01
    cashProportion[2]  findWorstP[5,2]  -2.8822596915982135e-01
    cashProportion[3]  allocateAllCash  1
    cashProportion[3]  findWorstP[1,3]  -4.1347942939838744e-01
    cashProportion[3]  findWorstP[2,3]  -0.590493061706525
    cashProportion[3]  findWorstP[3,1]  3.0620837479905078e-01
    cashProportion[3]  findWorstP[3,2]  3.0620837479905078e-01
    cashProportion[3]  findWorstP[3,4]  3.0620837479905078e-01
    cashProportion[3]  findWorstP[3,5]  3.0620837479905078e-01
    cashProportion[3]  findWorstP[4,3]  -2.4016811768237770e-01
    cashProportion[3]  findWorstP[5,3]  -2.8822596915982135e-01
    cashProportion[4]  allocateAllCash  1
    cashProportion[4]  findWorstP[1,4]  -4.1347942939838744e-01
    cashProportion[4]  findWorstP[2,4]  -0.590493061706525
    cashProportion[4]  findWorstP[3,4]  -3.0620837479905078e-01
    cashProportion[4]  findWorstP[4,1]  2.4016811768237770e-01
    cashProportion[4]  findWorstP[4,2]  2.4016811768237770e-01
    cashProportion[4]  findWorstP[4,3]  2.4016811768237770e-01
    cashProportion[4]  findWorstP[4,5]  2.4016811768237770e-01
    cashProportion[4]  findWorstP[5,4]  -2.8822596915982135e-01
    cashProportion[5]  allocateAllCash  1
    cashProportion[5]  findWorstP[1,5]  -4.1347942939838744e-01
    cashProportion[5]  findWorstP[2,5]  -0.590493061706525
    cashProportion[5]  findWorstP[3,5]  -3.0620837479905078e-01
    cashProportion[5]  findWorstP[4,5]  -2.4016811768237770e-01
    cashProportion[5]  findWorstP[5,1]  2.8822596915982135e-01
    cashProportion[5]  findWorstP[5,2]  2.8822596915982135e-01
    cashProportion[5]  findWorstP[5,3]  2.8822596915982135e-01
    cashProportion[5]  findWorstP[5,4]  2.8822596915982135e-01
    MARKER    'MARKER'                 'INTORG'
    x[1,1]    allocateEach[1]  1
    x[1,1]    findWorstP[1,2]  1.2972917097374403e-01
    x[1,1]    findWorstP[1,3]  1.2972917097374403e-01
    x[1,1]    findWorstP[1,4]  1.2972917097374403e-01
    x[1,1]    findWorstP[1,5]  1.2972917097374403e-01
    x[1,1]    findWorstP[2,1]  -3.8042515500442869e-01
    x[1,1]    findWorstP[3,1]  -6.1471331240909435e-02
    x[1,1]    findWorstP[4,1]  -2.4329030321224859e-01
    x[1,1]    findWorstP[5,1]  -6.6825190949704572e-01
    x[1,2]    allocateEach[2]  1
    x[1,2]    findWorstP[1,2]  4.5679139962786852e-01
    x[1,2]    findWorstP[1,3]  4.5679139962786852e-01
    x[1,2]    findWorstP[1,4]  4.5679139962786852e-01
    x[1,2]    findWorstP[1,5]  4.5679139962786852e-01
    x[1,2]    findWorstP[2,1]  -2.9081783289046353e-02
    x[1,2]    findWorstP[3,1]  -6.3232029396003975e-01
    x[1,2]    findWorstP[4,1]  -5.1654157910537379e-01
    x[1,2]    findWorstP[5,1]  -4.3522121343133019e-02
    x[2,1]    allocateEach[1]  1
    x[2,1]    findWorstP[1,2]  -1.2972917097374403e-01
    x[2,1]    findWorstP[2,1]  3.8042515500442869e-01
    x[2,1]    findWorstP[2,3]  3.8042515500442869e-01
    x[2,1]    findWorstP[2,4]  3.8042515500442869e-01
    x[2,1]    findWorstP[2,5]  3.8042515500442869e-01
    x[2,1]    findWorstP[3,2]  -6.1471331240909435e-02
    x[2,1]    findWorstP[4,2]  -2.4329030321224859e-01
    x[2,1]    findWorstP[5,2]  -6.6825190949704572e-01
    x[2,2]    allocateEach[2]  1
    x[2,2]    findWorstP[1,2]  -4.5679139962786852e-01
    x[2,2]    findWorstP[2,1]  2.9081783289046353e-02
    x[2,2]    findWorstP[2,3]  2.9081783289046353e-02
    x[2,2]    findWorstP[2,4]  2.9081783289046353e-02
    x[2,2]    findWorstP[2,5]  2.9081783289046353e-02
    x[2,2]    findWorstP[3,2]  -6.3232029396003975e-01
    x[2,2]    findWorstP[4,2]  -5.1654157910537379e-01
    x[2,2]    findWorstP[5,2]  -4.3522121343133019e-02
    x[3,1]    allocateEach[1]  1
    x[3,1]    findWorstP[1,3]  -1.2972917097374403e-01
    x[3,1]    findWorstP[2,3]  -3.8042515500442869e-01
    x[3,1]    findWorstP[3,1]  6.1471331240909435e-02
    x[3,1]    findWorstP[3,2]  6.1471331240909435e-02
    x[3,1]    findWorstP[3,4]  6.1471331240909435e-02
    x[3,1]    findWorstP[3,5]  6.1471331240909435e-02
    x[3,1]    findWorstP[4,3]  -2.4329030321224859e-01
    x[3,1]    findWorstP[5,3]  -6.6825190949704572e-01
    x[3,2]    allocateEach[2]  1
    x[3,2]    findWorstP[1,3]  -4.5679139962786852e-01
    x[3,2]    findWorstP[2,3]  -2.9081783289046353e-02
    x[3,2]    findWorstP[3,1]  6.3232029396003975e-01
    x[3,2]    findWorstP[3,2]  6.3232029396003975e-01
    x[3,2]    findWorstP[3,4]  6.3232029396003975e-01
    x[3,2]    findWorstP[3,5]  6.3232029396003975e-01
    x[3,2]    findWorstP[4,3]  -5.1654157910537379e-01
    x[3,2]    findWorstP[5,3]  -4.3522121343133019e-02
    x[4,1]    allocateEach[1]  1
    x[4,1]    findWorstP[1,4]  -1.2972917097374403e-01
    x[4,1]    findWorstP[2,4]  -3.8042515500442869e-01
    x[4,1]    findWorstP[3,4]  -6.1471331240909435e-02
    x[4,1]    findWorstP[4,1]  2.4329030321224859e-01
    x[4,1]    findWorstP[4,2]  2.4329030321224859e-01
    x[4,1]    findWorstP[4,3]  2.4329030321224859e-01
    x[4,1]    findWorstP[4,5]  2.4329030321224859e-01
    x[4,1]    findWorstP[5,4]  -6.6825190949704572e-01
    x[4,2]    allocateEach[2]  1
    x[4,2]    findWorstP[1,4]  -4.5679139962786852e-01
    x[4,2]    findWorstP[2,4]  -2.9081783289046353e-02
    x[4,2]    findWorstP[3,4]  -6.3232029396003975e-01
    x[4,2]    findWorstP[4,1]  5.1654157910537379e-01
    x[4,2]    findWorstP[4,2]  5.1654157910537379e-01
    x[4,2]    findWorstP[4,3]  5.1654157910537379e-01
    x[4,2]    findWorstP[4,5]  5.1654157910537379e-01
    x[4,2]    findWorstP[5,4]  -4.3522121343133019e-02
    x[5,1]    allocateEach[1]  1
    x[5,1]    findWorstP[1,5]  -1.2972917097374403e-01
    x[5,1]    findWorstP[2,5]  -3.8042515500442869e-01
    x[5,1]    findWorstP[3,5]  -6.1471331240909435e-02
    x[5,1]    findWorstP[4,5]  -2.4329030321224859e-01
    x[5,1]    findWorstP[5,1]  6.6825190949704572e-01
    x[5,1]    findWorstP[5,2]  6.6825190949704572e-01
    x[5,1]    findWorstP[5,3]  6.6825190949704572e-01
    x[5,1]    findWorstP[5,4]  6.6825190949704572e-01
    x[5,2]    allocateEach[2]  1
    x[5,2]    findWorstP[1,5]  -4.5679139962786852e-01
    x[5,2]    findWorstP[2,5]  -2.9081783289046353e-02
    x[5,2]    findWorstP[3,5]  -6.3232029396003975e-01
    x[5,2]    findWorstP[4,5]  -5.1654157910537379e-01
    x[5,2]    findWorstP[5,1]  4.3522121343133019e-02
    x[5,2]    findWorstP[5,2]  4.3522121343133019e-02
    x[5,2]    findWorstP[5,3]  4.3522121343133019e-02
    x[5,2]    findWorstP[5,4]  4.3522121343133019e-02
    MARKER    'MARKER'                 'INTEND'
RHS
    RHS1      allocateEach[1]  1
    RHS1      allocateEach[2]  1
    RHS1      allocateAllCash  1
BOUNDS
 UP BND1      z         1
 MI BND1      cashProportion[1]
 UP BND1      cashProportion[1]  1
 MI BND1      cashProportion[2]
 UP BND1      cashProportion[2]  1
 MI BND1      cashProportion[3]
 UP BND1      cashProportion[3]  1
 MI BND1      cashProportion[4]
 UP BND1      cashProportion[4]  1
 MI BND1      cashProportion[5]
 UP BND1      cashProportion[5]  1
 BV BND1      x[1,1]  
 BV BND1      x[1,2]  
 BV BND1      x[2,1]  
 BV BND1      x[2,2]  
 BV BND1      x[3,1]  
 BV BND1      x[3,2]  
 BV BND1      x[4,1]  
 BV BND1      x[4,2]  
 BV BND1      x[5,1]  
 BV BND1      x[5,2]  
ENDATA
